minizinc/sudoku_problems2/sudoku_p17.dzn
%
% sudoku_p17.dzn
% See http://www.hakank.org/minizinc/sudoku_gcc.mzn
% 
% This problem is problem 17 from
% Gecode's sudoku.cpp
% http://www.gecode.org/gecode-doc-latest/sudoku_8cpp-source.html
% 
x = array2d(1..n, 1..n, [   
% From http://www.sudoku.org.uk/discus/messages/29/51.html?1131034031
% 17
  2,  5,  8,  1,  _,  4,  _,  3,  7,
  9,  3,  6,  8,  2,  7,  5,  1,  4,
  4,  7,  1,  5,  3,  _,  2,  8,  _,
  7,  1,  5,  2,  _,  3,  _,  4,  _,
  8,  4,  9,  6,  7,  5,  3,  2,  1,
  3,  6,  2,  4,  1,  _,  _,  7,  5,
  1,  2,  4,  9,  _,  _,  7,  5,  3,
  5,  9,  3,  7,  4,  2,  1,  6,  8,
  6,  8,  7,  3,  5,  1,  4,  9,  2
]);

n = 9;


